# Objective value = 3.1186036190396283e+02
x[0] 1
x[1] 1
x[2] 0
x[3] 1
x[4] 1
x[5] 0
x[6] 1
x[7] 0
x[8] 0
x[9] 1
x[10] 1
x[11] 1
x[12] 1
x[13] 1
x[14] 1
x[15] 0
x[16] 1
x[17] 1
x[18] 1
x[19] 1
x[20] 1
x[21] 0
x[22] 1
x[23] 0
x[24] 1
x[25] 1
x[26] 0
x[27] 0
x[28] 0
x[29] 9.9999932078947951e-01
x[30] 0
x[31] 1
x[32] 0
x[33] 1
x[34] 1
x[35] 1
x[36] 1
x[37] 1
x[38] 0
x[39] 1
x[40] 0
x[41] 1
x[42] 0
x[43] 1
x[44] 1
x[45] 0
x[46] 0
x[47] 0
x[48] 1
x[49] 0
x[50] 0
x[51] 0
x[52] 1
x[53] 0
x[54] 1
x[55] 0
x[56] 1
x[57] 0
x[58] 1
x[59] 0
x[60] 1
x[61] 1
x[62] 1
x[63] 1
x[64] 0
x[65] 0
x[66] 0
x[67] 0
x[68] 1
x[69] 1
x[70] 1
x[71] 0
x[72] 0
x[73] 0
x[74] 1
x[75] 1
x[76] 0
x[77] 1
x[78] 1
x[79] 1
x[80] 1
x[81] 0
x[82] 0
x[83] 1
x[84] 0
x[85] 0
x[86] 0
x[87] 1
x[88] 0
x[89] 1
x[90] 1
x[91] 0
x[92] 0
x[93] 0
x[94] 1
x[95] 0
x[96] 1
x[97] 0
x[98] 1
x[99] 0
x[100] 1
x[101] 0
x[102] 1
x[103] 1
x[104] 1
x[105] 0
x[106] 1
x[107] 1
x[108] 1
x[109] 1
x[110] 1
x[111] 1
x[112] 1
x[113] 1
x[114] 0
x[115] 0
x[116] 1
x[117] 0
x[118] 1
x[119] 1
x[120] 0
x[121] 0
x[122] 0
x[123] 1
x[124] 1
x[125] 0
x[126] 1
x[127] 0
x[128] 1
x[129] 0
x[130] 1
x[131] 0
x[132] 1
x[133] 0
x[134] 1
x[135] 0
x[136] 1
x[137] 1
x[138] 1
x[139] 0
x[140] 1
x[141] 0
x[142] 0
x[143] 0
x[144] 0
x[145] 0
x[146] 1
x[147] 1
x[148] 1
x[149] 1
x[150] 1
x[151] 0
x[152] 1
x[153] 1
x[154] 1
x[155] 0
x[156] 0
x[157] 0
x[158] 1
x[159] 1
x[160] 1
x[161] 0
x[162] 1
x[163] 0
x[164] 0
x[165] 0
x[166] 0
x[167] 1
x[168] 1
x[169] 1
x[170] 0
x[171] 1
x[172] 0
x[173] 0
x[174] 0
x[175] 1
x[176] 0
x[177] 0
x[178] 0
x[179] 0
x[180] 1
x[181] 0
x[182] 1
x[183] 1
x[184] 1
x[185] 0
x[186] 0
x[187] 0
x[188] 0
x[189] 0
x[190] 6.7658612881032633e-07
x[191] 0
x[192] 0
x[193] 0
x[194] 0
x[195] 0
x[196] 1
x[197] 1
x[198] 1
x[199] 1
x[200] 0
x[201] 0
x[202] 1
x[203] 1
x[204] 1
x[205] 1
x[206] 1
x[207] 0
x[208] 0
x[209] 1
x[210] 1
x[211] 1
x[212] 1
x[213] 1
x[214] 0
x[215] 0
x[216] 0
x[217] 0
x[218] 1
x[219] 1
x[220] 1
x[221] 1
x[222] 1
x[223] 1
x[224] 1
x[225] 1
x[226] 0
x[227] 0
x[228] 1
x[229] 1
x[230] 1
x[231] 0
x[232] 1
x[233] 1
x[234] 1
x[235] 0
x[236] 1
x[237] 1
x[238] 0
x[239] 1
x[240] 1
x[241] 0
x[242] 0
x[243] 0
x[244] 0
x[245] 0
x[246] 1
x[247] 1
x[248] 1
x[249] 1
x[250] 0
x[251] 1
x[252] 0
x[253] 0
x[254] 0
x[255] 1
x[256] 0
x[257] 0
x[258] 1
x[259] 1
x[260] 0
x[261] 0
x[262] 0
x[263] 1
x[264] 0
x[265] 1
x[266] 1
x[267] 1
x[268] 1
x[269] 1
x[270] 1
x[271] 1
x[272] 0
x[273] 1
x[274] 1
x[275] 0
x[276] 1
x[277] 1
x[278] 0
x[279] 1
x[280] 0
x[281] 0
x[282] 1
x[283] 1
x[284] 1
x[285] 1
x[286] 1
x[287] 1
x[288] 0
x[289] 1
x[290] 1
x[291] 0
x[292] 0
x[293] 1
x[294] 1
x[295] 0
x[296] 0
x[297] 1
x[298] 1
x[299] 0
x[300] 0
x[301] 1
x[302] 0
x[303] 1
x[304] 0
x[305] 1
x[306] 0
x[307] 0
x[308] 0
x[309] 1
x[310] 1
x[311] 1
x[312] 1
x[313] 1
x[314] 0
x[315] 0
x[316] 0
x[317] 0
x[318] 0
x[319] 0
x[320] 0
x[321] 1
x[322] 1
x[323] 1
x[324] 1
x[325] 0
x[326] 0
x[327] 0
x[328] 1
x[329] 1
x[330] 1
x[331] 0
x[332] 0
x[333] 0
x[334] 0
x[335] 1
x[336] 0
x[337] 1
x[338] 1
x[339] 1
x[340] 1
x[341] 0
x[342] 1
x[343] 0
x[344] 1
x[345] 1
x[346] 0
x[347] 1
x[348] 0
x[349] 0
x[350] 0
x[351] 0
x[352] 0
x[353] 0
x[354] 1
x[355] 1
x[356] 1
x[357] 0
x[358] 0
x[359] 0
x[360] 0
x[361] 0
x[362] 1
x[363] 0
x[364] 0
x[365] 0
x[366] 0
x[367] 0
x[368] 1
x[369] 1
x[370] 0
x[371] 0
x[372] 1
x[373] 1
x[374] 1
x[375] 0
x[376] 0
x[377] 1
x[378] 1
x[379] 1
x[380] 1
x[381] 1
x[382] 0
x[383] 1
x[384] 1
x[385] 0
x[386] 0
x[387] 0
x[388] 1
x[389] 1
x[390] 0
x[391] 1
x[392] 1
x[393] 1
x[394] 0
x[395] 1
x[396] 1
x[397] 0
x[398] 1
x[399] 0
x[400] 0
x[401] 0
x[402] 1
x[403] 1
x[404] 0
x[405] 1
x[406] 0
x[407] 1
x[408] 0
x[409] 1
x[410] 1
x[411] 1
x[412] 0
x[413] 0
x[414] 0
x[415] 0
x[416] 0
x[417] 0
x[418] 0
x[419] 0
x[420] 0
x[421] 0
x[422] 0
x[423] 0
x[424] 0
x[425] 0
x[426] 1
x[427] 1
x[428] 0
x[429] 0
x[430] 0
x[431] 1
x[432] 0
x[433] 0
x[434] 1
x[435] 0
x[436] 0
x[437] 0
x[438] 1
x[439] 0
x[440] 0
x[441] 0
x[442] 0
x[443] 1
x[444] 0
x[445] 0
x[446] 0
x[447] 0
x[448] 1
x[449] 0
x[450] 1
x[451] 1
x[452] 1
x[453] 0
x[454] 1
x[455] 1
x[456] 0
x[457] 0
x[458] 1
x[459] 1
x[460] 1
x[461] 0
x[462] 1
x[463] 0
x[464] 0
x[465] 1
x[466] 0
x[467] 1
x[468] 1
x[469] 1
x[470] 1
x[471] 0
x[472] 1
x[473] 1
x[474] 1
x[475] 0
x[476] 1
x[477] 0
x[478] 0
x[479] 0
x[480] 1
x[481] 0
x[482] 0
x[483] 0
x[484] 1
x[485] 1
x[486] 0
x[487] 0
x[488] 0
x[489] 0
x[490] 0
x[491] 1
x[492] 0
x[493] 1
x[494] 1
x[495] 1
x[496] 0
x[497] 1
x[498] 0
x[499] 0
x[500] 0
x[501] 1
x[502] 0
x[503] 1
x[504] 0
x[505] 0
x[506] 0
x[507] 1
x[508] 0
x[509] 0
x[510] 1
x[511] 1
x[512] 1
x[513] 0
x[514] 0
x[515] 1
x[516] 1
x[517] 1
x[518] 1
x[519] 1
x[520] 1
x[521] 1
x[522] 1
x[523] 0
x[524] 1
x[525] 0
x[526] 0
x[527] 1
x[528] 0
x[529] 0
x[530] 0
x[531] 1
x[532] 0
x[533] 0
x[534] 0
x[535] 1
x[536] 0
x[537] 0
x[538] 1
x[539] 0
x[540] 0
x[541] 0
x[542] 1
x[543] 1
x[544] 0
x[545] 0
x[546] 1
x[547] 0
x[548] 0
x[549] 1
x[550] 1
x[551] 1
x[552] 1
x[553] 0
x[554] 0
x[555] 1
x[556] 0
x[557] 1
x[558] 0
x[559] 1
x[560] 1
x[561] 0
x[562] 0
x[563] 1
x[564] 0
x[565] 0
x[566] 0
x[567] 1
x[568] 1
x[569] 1
x[570] 0
x[571] 0
x[572] 1
x[573] 1
x[574] 0
x[575] 0
x[576] 1
x[577] 0
x[578] 0
x[579] 0
x[580] 1
x[581] 1
x[582] 1
x[583] 1
x[584] 1
x[585] 1
x[586] 0
x[587] 0
x[588] 0
x[589] 1
x[590] 1
x[591] 1
x[592] 1
x[593] 1
x[594] 0
x[595] 1
x[596] 1
x[597] 0
x[598] 0
x[599] 1
x[600] 1
x[601] 1
x[602] 1
x[603] 1
x[604] 0
x[605] 1
x[606] 0
x[607] 1
x[608] 0
x[609] 0
x[610] 0
x[611] 0
x[612] 1
x[613] 1
x[614] 0
x[615] 0
x[616] 0
x[617] 1
x[618] 0
x[619] 0
x[620] 0
x[621] 0
x[622] 0
x[623] 1
x[624] 0
x[625] 1
x[626] 1
x[627] 1
x[628] 0
x[629] 1
x[630] 1
x[631] 0
x[632] 1
x[633] 0
x[634] 1
x[635] 1
x[636] 0
x[637] 0
x[638] 9.9999931912281292e-01
x[639] 0
x[640] 0
x[641] 1
x[642] 1
x[643] 0
x[644] 0
x[645] 1
x[646] 1
x[647] 0
x[648] 1
x[649] 1
x[650] 0
x[651] 1
x[652] 0
x[653] 0
x[654] 1
x[655] 1
x[656] 1
x[657] 1
x[658] 1
x[659] 1
x[660] 0
x[661] 1
x[662] 1
x[663] 0
x[664] 1
x[665] 0
x[666] 1
x[667] 0
x[668] 0
x[669] 0
x[670] 1
x[671] 1
x[672] 0
x[673] 1
x[674] 0
x[675] 0
x[676] 1
x[677] 1
x[678] 1
x[679] 0
x[680] 1
x[681] 0
x[682] 1
x[683] 1
x[684] 0
x[685] 1
x[686] 0
x[687] 1
x[688] 0
x[689] 0
x[690] 1
x[691] 1
x[692] 0
x[693] 0
x[694] 1
x[695] 0
x[696] 0
x[697] 6.80501437711957e-07
x[698] 1
x[699] 0
x[700] 0
x[701] 0
x[702] 1
x[703] 0
x[704] 0
x[705] 0
x[706] 0
x[707] 0
x[708] 0
x[709] 0
x[710] 1
x[711] 0
x[712] 1
x[713] 1
x[714] 1
x[715] 1
x[716] 0
x[717] 0
x[718] 1
x[719] 1
x[720] 0
x[721] 1
x[722] 1
x[723] 1
x[724] 1
x[725] 0
x[726] 1
x[727] 1
x[728] 1
x[729] 0
x[730] 1
x[731] 0
x[732] 0
x[733] 0
x[734] 1
x[735] 1
x[736] 0
x[737] 0
x[738] 1
x[739] 0
x[740] 1
x[741] 0
x[742] 1
x[743] 0
x[744] 0
x[745] 0
x[746] 0
x[747] 0
x[748] 0
x[749] 0
x[750] 0
x[751] 0
x[752] 0
x[753] 0
x[754] 1
x[755] 1
x[756] 0
x[757] 0
x[758] 0
x[759] 0
x[760] 1
x[761] 0
x[762] 0
x[763] 0
x[764] 0
x[765] 1
x[766] 1
x[767] 0
x[768] 1
x[769] 1
x[770] 0
x[771] 0
x[772] 1
x[773] 1
x[774] 1
x[775] 0
x[776] 0
x[777] 1
x[778] 0
x[779] 0
x[780] 0
x[781] 0
x[782] 0
x[783] 0
x[784] 1
x[785] 0
x[786] 1
x[787] 1
x[788] 0
x[789] 0
x[790] 1
x[791] 1
x[792] 0
x[793] 1
x[794] 1
x[795] 0
x[796] 1
x[797] 0
x[798] 0
x[799] 1
x[800] 1
x[801] 0
x[802] 0
x[803] 0
x[804] 1
x[805] 0
x[806] 1
x[807] 1
x[808] 0
x[809] 0
x[810] 0
x[811] 1
x[812] 1
x[813] 0
x[814] 0
x[815] 0
x[816] 1
x[817] 1
x[818] 0
x[819] 1
x[820] 0
x[821] 0
x[822] 1
x[823] 1
x[824] 0
x[825] 0
x[826] 1
x[827] 1
x[828] 0
x[829] 0
x[830] 1
x[831] 0
x[832] 1
x[833] 0
x[834] 0
x[835] 1
x[836] 1
x[837] 1
x[838] 0
x[839] 0
x[840] 0
x[841] 0
x[842] 1
x[843] 0
x[844] 0
x[845] 1
x[846] 1
x[847] 0
x[848] 0
x[849] 1
x[850] 0
x[851] 0
x[852] 1
x[853] 0
x[854] 0
x[855] 1
x[856] 1
x[857] 0
x[858] 1
x[859] 0
x[860] 0
x[861] 1
x[862] 0
x[863] 1
x[864] 1
x[865] 1
x[866] 1
x[867] 1
x[868] 0
x[869] 0
x[870] 0
x[871] 0
x[872] 0
x[873] 1
x[874] 0
x[875] 1
x[876] 0
x[877] 1
x[878] 0
x[879] 1
x[880] 0
x[881] 0
x[882] 1
x[883] 0
x[884] 1
x[885] 1
x[886] 0
x[887] 0
x[888] 1
x[889] 1
x[890] 0
x[891] 0
x[892] 1
x[893] 1
x[894] 0
x[895] 0
x[896] 1
x[897] 0
x[898] 0
x[899] 0
x[900] 0
x[901] 0
x[902] 1
x[903] 1
x[904] 1
x[905] 0
x[906] 1
x[907] 1
x[908] 0
x[909] 1
x[910] 0
x[911] 0
x[912] 0
x[913] 0
x[914] 1
x[915] 0
x[916] 0
x[917] 1
x[918] 1
x[919] 1
x[920] 1
x[921] 0
x[922] 0
x[923] 0
x[924] 0
x[925] 0
x[926] 1
x[927] 0
x[928] 0
x[929] 1
x[930] 0
x[931] 1
x[932] 1
x[933] 0
x[934] 1
x[935] 1
x[936] 1
x[937] 0
x[938] 0
x[939] 0
x[940] 1
x[941] 0
x[942] 0
x[943] 1
x[944] 1
x[945] 0
x[946] 0
x[947] 1
x[948] 0
x[949] 1
x[950] 0
x[951] 0
x[952] 0
x[953] 0
x[954] 0
x[955] 0
x[956] 1
x[957] 1
x[958] 1
x[959] 0
x[960] 1
x[961] 0
x[962] 1
x[963] 1
x[964] 1
x[965] 1
x[966] 0
x[967] 0
x[968] 1
x[969] 1
x[970] 0
x[971] 0
x[972] 1
x[973] 0
x[974] 1
x[975] 0
x[976] 0
x[977] 0
x[978] 0
x[979] 0
x[980] 1
x[981] 0
x[982] 1
x[983] 1
x[984] 0
x[985] 1
x[986] 0
x[987] 0
x[988] 0
x[989] 1
x[990] 1
x[991] 1
x[992] 0
x[993] 1
x[994] 0
x[995] 0
x[996] 1
x[997] 1
x[998] 0
x[999] 1
